40
1 0 1
2 0 2
2 1 1
3 0 1
4 2 2
5 1 3
5 2 3
5 3 1
5 4 2
6 0 1
6 4 1
7 0 1
7 1 2
7 3 1
7 4 2
7 5 3
8 0 1
8 4 3
9 0 2
9 4 3
9 6 1
10 1 1
10 2 2
10 3 1
10 4 1
10 6 2
10 7 3
10 8 2
11 0 2
11 2 1
11 5 2
11 6 3
11 7 3
11 10 1
12 0 2
12 1 1
12 2 2
12 7 3
12 8 3
12 9 2
13 0 2
13 5 1
13 7 3
13 9 2
13 10 3
13 11 2
13 12 1
14 2 3
14 3 1
14 4 1
14 6 3
14 7 3
14 10 2
15 2 1
15 4 1
15 5 3
15 6 2
15 9 3
15 10 1
15 11 1
15 12 1
15 14 3
16 1 3
16 2 1
16 4 1
16 7 2
16 11 1
16 12 1
16 14 1
17 0 2
17 2 1
17 4 2
17 7 1
17 9 3
17 10 3
17 11 3
17 12 1
17 13 2
17 14 1
17 15 3
17 16 3
18 2 3
18 4 1
18 6 2
18 7 2
18 14 2
18 17 3
19 2 3
19 5 3
19 6 2
19 13 1
19 15 1
19 16 1
19 17 3
19 18 2
20 0 1
20 1 3
20 4 1
20 5 2
20 8 3
20 9 2
20 15 1
20 17 3
20 19 2
21 0 3
21 1 2
21 3 3
21 4 2
21 8 1
21 9 1
21 10 1
21 11 1
21 12 1
21 13 3
21 15 3
21 17 1
21 18 1
22 0 1
22 1 1
22 6 2
22 11 1
22 14 2
22 17 1
22 18 3
22 19 2
22 20 2
22 21 3
23 1 1
23 3 2
23 6 3
23 16 1
23 17 1
23 18 3
23 20 3
23 21 2
23 22 3
24 1 2
24 2 2
24 3 2
24 9 3
24 13 1
24 14 2
24 16 2
24 18 1
24 19 1
24 20 1
24 23 3
25 0 2
25 2 1
25 4 2
25 5 1
25 6 1
25 8 2
25 9 1
25 15 2
25 16 1
25 18 1
25 19 2
26 1 1
26 3 3
26 4 1
26 6 2
26 7 1
26 10 2
26 11 3
26 15 3
26 16 2
26 17 1
26 18 3
26 22 2
26 23 3
27 0 2
27 1 2
27 2 2
27 3 3
27 6 2
27 8 1
27 9 3
27 11 3
27 12 3
27 13 2
27 15 2
27 16 2
27 18 3
27 20 3
27 21 1
27 22 1
27 23 1
27 24 2
27 26 3
28 1 3
28 2 2
28 9 1
28 10 2
28 12 2
28 14 3
28 18 2
28 19 1
28 22 1
28 24 3
28 27 2
29 0 1
29 1 1
29 2 2
29 6 1
29 8 1
29 9 3
29 10 2
29 13 2
29 20 2
29 25 3
29 26 3
30 0 1
30 1 2
30 2 3
30 3 1
30 7 3
30 8 1
30 9 2
30 10 3
30 11 1
30 13 2
30 14 1
30 15 2
30 21 1
30 22 3
30 28 1
31 0 3
31 3 2
31 5 3
31 6 1
31 9 2
31 10 1
31 13 1
31 14 2
31 15 2
31 22 2
31 23 3
31 27 2
32 5 2
32 6 2
32 7 1
32 10 3
32 12 1
32 13 3
32 14 2
32 18 1
32 19 1
32 23 2
32 26 3
32 27 2
32 29 2
33 0 3
33 1 1
33 2 3
33 3 3
33 5 2
33 7 3
33 9 1
33 10 1
33 11 2
33 16 3
33 17 3
33 21 3
33 22 1
33 24 3
33 25 3
33 26 1
33 28 2
33 31 2
33 32 1
34 0 1
34 1 2
34 2 3
34 4 3
34 5 1
34 6 2
34 7 1
34 10 2
34 11 1
34 12 2
34 14 2
34 15 3
34 18 3
34 20 3
34 21 3
34 23 2
34 24 1
34 26 3
34 27 1
34 28 2
34 29 2
34 32 3
35 0 3
35 2 1
35 3 2
35 4 2
35 6 1
35 7 1
35 8 2
35 14 1
35 15 2
35 16 2
35 17 3
35 18 1
35 19 1
35 22 3
35 23 2
35 25 1
35 30 2
35 33 3
36 1 3
36 3 1
36 4 2
36 5 1
36 6 2
36 9 1
36 12 3
36 13 1
36 14 2
36 16 3
36 19 3
36 20 2
36 22 3
36 24 3
36 26 2
36 27 2
36 28 3
36 30 3
36 33 2
36 35 3
37 0 3
37 1 1
37 4 3
37 6 2
37 7 3
37 9 3
37 11 3
37 12 2
37 14 3
37 15 2
37 17 3
37 18 3
37 23 2
37 26 3
37 28 3
37 29 1
37 31 1
37 33 1
38 4 1
38 5 2
38 8 1
38 9 3
38 12 3
38 14 2
38 16 2
38 20 1
38 22 2
38 23 2
38 26 3
38 28 2
38 29 2
38 30 1
38 31 2
38 35 3
39 2 1
39 8 2
39 10 2
39 12 2
39 14 2
39 17 1
39 18 1
39 19 3
39 22 2
39 24 2
39 25 1
39 26 2
39 30 2
39 32 3
39 33 3
